nodes = 6;
edges = 12;
starts = [1, 1, 2, 2, 3, 3, 4, 4, 5, 5, 6, 6];
ends = [2, 4, 1, 3, 2, 6, 1, 5, 4, 6, 3, 5];
weights = [11, 12, 11, 6, 6, 6, 12, 10, 10, 14, 6, 14];
start = 1;
end= 6;
p = [1, 0, 1, 1, 1, 0]);
